/*********************************************
 * OPL 12.6.0.0 Data
 * Author: Adrian Rodriguez Bazaga, Pau Rodriguez Esmerats
 * Creation Date: 06/12/2017 at 23:02:59
 *********************************************/

nNurses=175;
maxConsec=2;
maxPresence=7;
maxHours=5;
minHours=1;
hours=24;
demand= [33 30 42 48 30 42 48 32 27 18 2 3 3 6 3 4 3 3 1 3 23 52 29 38  ];
